RT is False
Default write of storage_offers_DA.csv just to have a file (but constraint should be inactive)
Reading model...
...model read.
creating competitive generators file...
...competitive generators recorded.
Loading data...
.. day-ahead data with real-time VRE data read.
Compiling instance...
...instance created.
Creating Offer Mitigation (model will solve as dispatch if TRUE)...
Solving...

Welcome to IBM(R) ILOG(R) CPLEX(R) Interactive Optimizer 12.8.0.0
  with Simplex, Mixed Integer & Barrier Optimizers
5725-A06 5725-A29 5724-Y48 5724-Y49 5724-Y54 5724-Y55 5655-Y21
Copyright IBM Corp. 1988, 2017.  All Rights Reserved.

Type 'help' for a list of available commands.
Type 'help' followed by a command name for more
information on commands.

CPLEX> Logfile 'cplex.log' closed.
Logfile 'C:\Users\llavi\Desktop\test919\logs\tmpqpuhyhqh.cplex.log' open.
CPLEX> New value for parallel optimization mode: -1
CPLEX> New value for mixed integer optimality gap tolerance: 0.01
CPLEX> New value for integrality tolerance: 1e-09
CPLEX> New value for feasibility tolerance: 0.01
CPLEX> New value for deterministic time limit in ticks: 75000
CPLEX> Problem 'C:\Users\llavi\Desktop\test919\logs\tmppc4irym1.pyomo.lp' read.
Read time = 0.08 sec. (3.03 ticks)
CPLEX> Problem name         : C:\Users\llavi\Desktop\test919\logs\tmppc4irym1.pyomo.lp
Objective sense      : Minimize
Variables            :   26465  [Nneg: 1,  Box: 22000,  Free: 4464]
Objective nonzeros   :    2496
Linear constraints   :   27515  [Less: 14006,  Greater: 4416,  Equal: 9093]
  Nonzeros           :   89171
  RHS nonzeros       :   12271

Variables            : Min LB: -5000.000        Max UB: 1000000.       
Objective nonzeros   : Min   : 15.73158         Max   : 124.0997       
Linear constraints   :
  Nonzeros           : Min   : 0.8500000        Max   : 3000.000       
  RHS nonzeros       : Min   : 0.3083333        Max   : 5000.000       
CPLEX> CPXPARAM_Simplex_Tolerances_Feasibility          0.01
CPXPARAM_Parallel                                -1
CPXPARAM_DetTimeLimit                            75000
CPXPARAM_MIP_Tolerances_MIPGap                   0.01
CPXPARAM_MIP_Tolerances_Integrality              1.0000000000000001e-09
Parallel mode: opportunistic, using up to 4 threads for concurrent optimization.
Tried aggregator 1 time.
LP Presolve eliminated 21401 rows and 15895 columns.
Aggregator did 722 substitutions.
Reduced LP has 5392 rows, 9848 columns, and 31764 nonzeros.
Presolve time = 0.05 sec. (22.46 ticks)

Iteration log . . .
Iteration:     1   Dual objective     =             0.000000
Perturbation started.
Iteration:   101   Dual objective     =             0.000000
Iteration:   359   Dual objective     =             1.352479
Iteration:   630   Dual objective     =             1.976487
Iteration:   964   Dual objective     =             2.154047
Iteration:  1158   Dual objective     =             2.276403
Iteration:  1509   Dual objective     =             2.332010
Iteration:  1819   Dual objective     =             2.363797
Iteration:  2117   Dual objective     =             2.385011
Iteration:  2414   Dual objective     =             2.398446
Iteration:  2717   Dual objective     =             2.407785
Iteration:  3076   Dual objective     =             2.418092
Iteration:  3526   Dual objective     =             2.426683
Iteration:  3899   Dual objective     =         18958.579015
Iteration:  4276   Dual objective     =         22272.544076
Removing perturbation.

Dual simplex solved model.


Dual simplex - Optimal:  Objective =  2.2391698177e+04
Solution time =    0.23 sec.  Iterations = 4502 (0)
Deterministic time = 95.57 ticks  (406.68 ticks/sec)

CPLEX> Solution written to file 'C:\Users\llavi\Desktop\test919\logs\tmpnsmkv2_4.cplex.sol'.
CPLEX> Exporting results... 
...storage offer mitigation file created
Converting model to MPEC...
...converted
NOTE: initial MIP solve with only storage competitive to get feasible solution
Solving...

Welcome to IBM(R) ILOG(R) CPLEX(R) Interactive Optimizer 12.8.0.0
  with Simplex, Mixed Integer & Barrier Optimizers
5725-A06 5725-A29 5724-Y48 5724-Y49 5724-Y54 5724-Y55 5655-Y21
Copyright IBM Corp. 1988, 2017.  All Rights Reserved.

Type 'help' for a list of available commands.
Type 'help' followed by a command name for more
information on commands.

CPLEX> Logfile 'cplex.log' closed.
Logfile 'C:\Users\llavi\Desktop\test919\logs\tmpab7q_70t.cplex.log' open.
CPLEX> New value for parallel optimization mode: -1
CPLEX> New value for mixed integer optimality gap tolerance: 0.01
CPLEX> New value for integrality tolerance: 1e-09
CPLEX> New value for feasibility tolerance: 0.01
CPLEX> New value for deterministic time limit in ticks: 75000
CPLEX> Problem 'C:\Users\llavi\Desktop\test919\logs\tmp9vz9h5v3.pyomo.lp' read.
Read time = 0.25 sec. (13.96 ticks)
CPLEX> Problem name         : C:\Users\llavi\Desktop\test919\logs\tmp9vz9h5v3.pyomo.lp
Objective sense      : Maximize
Variables            :   53805  [Nneg: 1,  Box: 22000,  Free: 4464,
                                 Binary: 27340]
Objective nonzeros   :    9078
Linear constraints   :  123205  [Less: 41346,  Greater: 59096,  Equal: 22763]
  Nonzeros           :  291705
  RHS nonzeros       :   67411

Variables            : Min LB: -5000.000        Max UB: 1000000.       
Objective nonzeros   : Min   : 0.3083333        Max   : 2500.000       
Linear constraints   :
  Nonzeros           : Min   : 0.3083333        Max   : 1000000.       
  RHS nonzeros       : Min   : 0.3083333        Max   : 1000000.       
CPLEX> CPXPARAM_Simplex_Tolerances_Feasibility          0.01
CPXPARAM_Parallel                                -1
CPXPARAM_DetTimeLimit                            75000
CPXPARAM_MIP_Tolerances_MIPGap                   0.01
CPXPARAM_MIP_Tolerances_Integrality              1.0000000000000001e-09
Tried aggregator 3 times.
MIP Presolve eliminated 88677 rows and 19025 columns.
MIP Presolve added 3352 rows and 0 columns.
MIP Presolve modified 23872 coefficients.
Aggregator did 12972 substitutions.
Reduced MIP has 24908 rows, 21252 columns, and 70992 nonzeros.
Reduced MIP has 8414 binaries, 0 generals, 0 SOSs, and 0 indicators.
Presolve time = 0.30 sec. (165.41 ticks)
Probing fixed 387 vars, tightened 2902 bounds.
Probing time = 3.73 sec. (911.56 ticks)
Tried aggregator 2 times.
MIP Presolve eliminated 876 rows and 777 columns.
MIP Presolve modified 2235 coefficients.
Aggregator did 40 substitutions.
Reduced MIP has 23992 rows, 20435 columns, and 68338 nonzeros.
Reduced MIP has 8026 binaries, 0 generals, 0 SOSs, and 0 indicators.
Presolve time = 0.14 sec. (56.06 ticks)
Probing time = 0.06 sec. (15.39 ticks)
Clique table members: 6516.
MIP emphasis: balance optimality and feasibility.
MIP search method: dynamic search.
Parallel mode: opportunistic, using up to 4 threads.
Root relaxation solution time = 0.59 sec. (430.25 ticks)

        Nodes                                         Cuts/
   Node  Left     Objective  IInf  Best Integer    Best Bound    ItCnt     Gap

      0     0        0.0000   669                      0.0000     2645         
*     0+    0                            0.0000        0.0000             0.00%
      0     0        cutoff              0.0000        0.0000     2645    0.00%
Elapsed time = 6.11 sec. (1945.88 ticks, tree = 0.01 MB, solutions = 1)

Root node processing (before b&c):
  Real time             =    6.13 sec. (1948.15 ticks)
Parallel b&c, 4 threads:
  Real time             =    0.00 sec. (0.00 ticks)
  Sync time (average)   =    0.00 sec.
  Wait time (average)   =    0.00 sec.
                          ------------
Total (root+branch&cut) =    6.13 sec. (1948.15 ticks)

Solution pool: 1 solution saved.

MIP - Integer optimal solution:  Objective =  1.7698766897e-09
Solution time =    6.14 sec.  Iterations = 2645  Nodes = 0
Deterministic time = 1948.30 ticks  (317.31 ticks/sec)

CPLEX> Incumbent solution written to file 'C:\Users\llavi\Desktop\test919\logs\tmppbzlc1yu.cplex.sol'.
CPLEX> NOTE: no warmstart specified for MIP iteration, default behavior is true
NOTE: resolving with all competitive generators using storage-only solution to warmstart
Solving...

Welcome to IBM(R) ILOG(R) CPLEX(R) Interactive Optimizer 12.8.0.0
  with Simplex, Mixed Integer & Barrier Optimizers
5725-A06 5725-A29 5724-Y48 5724-Y49 5724-Y54 5724-Y55 5655-Y21
Copyright IBM Corp. 1988, 2017.  All Rights Reserved.

Type 'help' for a list of available commands.
Type 'help' followed by a command name for more
information on commands.

CPLEX> Logfile 'cplex.log' closed.
Logfile 'C:\Users\llavi\Desktop\test919\logs\tmplcss1qbd.cplex.log' open.
CPLEX> New value for parallel optimization mode: -1
CPLEX> New value for mixed integer optimality gap tolerance: 0.01
CPLEX> New value for integrality tolerance: 1e-09
CPLEX> New value for feasibility tolerance: 0.01
CPLEX> New value for deterministic time limit in ticks: 75000
CPLEX> Problem 'C:\Users\llavi\Desktop\test919\logs\tmpxcpsj3v3.pyomo.lp' read.
Read time = 0.27 sec. (13.98 ticks)
CPLEX> MIP start file 'C:\Users\llavi\Desktop\test919\logs\tmp1lrybb1_.cplex.mst' read.
CPLEX> Problem name         : C:\Users\llavi\Desktop\test919\logs\tmpxcpsj3v3.pyomo.lp
Objective sense      : Maximize
Variables            :   54525  [Nneg: 1,  Box: 22720,  Free: 4464,
                                 Binary: 27340]
Objective nonzeros   :    9774
Linear constraints   :  123205  [Less: 41346,  Greater: 59096,  Equal: 22763]
  Nonzeros           :  291705
  RHS nonzeros       :   67411

Variables            : Min LB: -5000.000        Max UB: 1000000.       
Objective nonzeros   : Min   : 0.3083333        Max   : 2500.000       
Linear constraints   :
  Nonzeros           : Min   : 0.3083333        Max   : 1000000.       
  RHS nonzeros       : Min   : 0.3083333        Max   : 1000000.       
CPLEX> CPXPARAM_Simplex_Tolerances_Feasibility          0.01
CPXPARAM_Parallel                                -1
CPXPARAM_DetTimeLimit                            75000
CPXPARAM_MIP_Tolerances_MIPGap                   0.01
CPXPARAM_MIP_Tolerances_Integrality              1.0000000000000001e-09
Warning:  No solution found from 1 MIP starts.
Retaining values of one MIP start for possible repair.
Tried aggregator 3 times.
MIP Presolve eliminated 88677 rows and 19745 columns.
MIP Presolve added 3352 rows and 0 columns.
MIP Presolve modified 23872 coefficients.
Aggregator did 12972 substitutions.
Reduced MIP has 24908 rows, 21252 columns, and 70992 nonzeros.
Reduced MIP has 8414 binaries, 0 generals, 0 SOSs, and 0 indicators.
Presolve time = 0.33 sec. (165.77 ticks)
Probing fixed 387 vars, tightened 2902 bounds.
Probing time = 3.27 sec. (911.56 ticks)
Tried aggregator 2 times.
MIP Presolve eliminated 876 rows and 777 columns.
MIP Presolve modified 2235 coefficients.
Aggregator did 40 substitutions.
Reduced MIP has 23992 rows, 20435 columns, and 68338 nonzeros.
Reduced MIP has 8026 binaries, 0 generals, 0 SOSs, and 0 indicators.
Presolve time = 0.11 sec. (56.05 ticks)
Probing time = 0.05 sec. (15.39 ticks)
Clique table members: 6516.
MIP emphasis: balance optimality and feasibility.
MIP search method: dynamic search.
Parallel mode: opportunistic, using up to 4 threads.
Root relaxation solution time = 0.56 sec. (508.72 ticks)

        Nodes                                         Cuts/
   Node  Left     Objective  IInf  Best Integer    Best Bound    ItCnt     Gap

      0     0   104900.1870   770                 104900.1870     2741         
      0     0   101426.3205   630                   Cuts: 553     2999         
      0     0   101233.6117   566                   Cuts: 184     3101         
      0     0   100970.3244   536                    Cuts: 88     3156         
      0     0   100877.5371   516                    Cuts: 64     3196         
      0     0   100711.8650   491                    Cuts: 59     3231         
      0     0   100711.8650   482                    Cuts: 62     3285         
      0     0   100711.8650   460                    Cuts: 51     3312         
      0     0   100711.8650   458                    Cuts: 36     3330         
      0     0   100711.8650   458                    Cuts: 29     3346         
Repair heuristic found nothing.
      0     5    96632.6964   458                 100592.5293     3357         
Elapsed time = 31.91 sec. (10840.39 ticks, tree = 0.03 MB, solutions = 0)
     78    44    81100.5086   380                  99750.8249     3706         
    162    59    infeasible                        99750.8249     5415         
    243    83    12211.5940   340                  99750.8249     6763         
    327   136    -2937.2761   312                  99750.8249     8977         
    439   227    -6461.1428   295                  99750.8249     9574         
    535   265    10181.9537   350                  99750.8249    10315         
    597   318    -6461.1428   262                  99750.8249    10533         
    754   429    -6461.1428   257                  99750.8249    11126         
    893   556    -2937.2761   224                  99750.8249    11580         
*  1383+  719                        -6461.1428    99750.8249              --- 
Elapsed time = 37.53 sec. (13891.81 ticks, tree = 6.11 MB, solutions = 1)
   1821   947    20843.7271   355    -6461.1428    99750.8249    13364     --- 
*  1963  1046      integral     0    28313.1811    99750.8249    13441  252.31%
   2137   170    43498.4570   371    28313.1811    99750.8249    14061  252.31%
   2375   125    35004.8555   373    28313.1811    95633.6097    14111  237.77%

Clique cuts applied:  2
Cover cuts applied:  1
Implied bound cuts applied:  2
Flow cuts applied:  427
Mixed integer rounding cuts applied:  29
Gomory fractional cuts applied:  26

Root node processing (before b&c):
  Real time             =   31.61 sec. (10803.86 ticks)
Parallel b&c, 4 threads:
  Real time             =   16.22 sec. (8187.23 ticks)
  Sync time (average)   =    0.11 sec.
  Wait time (average)   =    0.01 sec.
                          ------------
Total (root+branch&cut) =   47.83 sec. (18991.08 ticks)

Solution pool: 2 solutions saved.

MIP - Integer optimal solution:  Objective =  2.8313181139e+04
Solution time =   47.84 sec.  Iterations = 20482  Nodes = 2811
Deterministic time = 18991.24 ticks  (396.94 ticks/sec)

CPLEX> Incumbent solution written to file 'C:\Users\llavi\Desktop\test919\logs\tmpozumyx6i.cplex.sol'.
CPLEX> Exporting results... 
